(set-logic QF_SLIA)
(set-option :produce-models true)
(declare-const X String)
; ^(\w+)s?[:]\/\/(\w+)?[.]?(\w+)[.](\w+)$
(assert (str.in_re X (re.++ (re.+ (re.union (re.range "0" "9") (re.range "A" "Z") (re.range "a" "z") (str.to_re "_"))) (re.opt (str.to_re "s")) (str.to_re "://") (re.opt (re.+ (re.union (re.range "0" "9") (re.range "A" "Z") (re.range "a" "z") (str.to_re "_")))) (re.opt (str.to_re ".")) (re.+ (re.union (re.range "0" "9") (re.range "A" "Z") (re.range "a" "z") (str.to_re "_"))) (str.to_re ".") (re.+ (re.union (re.range "0" "9") (re.range "A" "Z") (re.range "a" "z") (str.to_re "_"))) (str.to_re "\u{0a}"))))
; \.exe\s+ZC-Bridge\s+TPSystemHost\x3AHost\u{3a}
(assert (not (str.in_re X (re.++ (str.to_re ".exe") (re.+ (re.union (str.to_re " ") (str.to_re "\u{09}") (str.to_re "\u{0a}") (str.to_re "\u{0c}") (str.to_re "\u{0d}"))) (str.to_re "ZC-Bridge") (re.+ (re.union (str.to_re " ") (str.to_re "\u{09}") (str.to_re "\u{0a}") (str.to_re "\u{0c}") (str.to_re "\u{0d}"))) (str.to_re "TPSystemHost:Host:\u{0a}")))))
; (http|ftp|https):\/\/(\w[\w\-_\.]*\.)?([_\-\w]+)(:[0-9]+)?([\/[\w_\.-]+]*)\/(\.?\w[\w._-]*[\w_-])?(#\w+)?([\w\-\.,@?^=%&:\~\+#]*[\w\-\@?^=%&\/\~\+#])?
(assert (str.in_re X (re.++ (re.union (str.to_re "http") (str.to_re "ftp") (str.to_re "https")) (str.to_re "://") (re.opt (re.++ (re.union (re.range "0" "9") (re.range "A" "Z") (re.range "a" "z") (str.to_re "_")) (re.* (re.union (str.to_re "-") (str.to_re "_") (str.to_re ".") (re.range "0" "9") (re.range "A" "Z") (re.range "a" "z") (str.to_re "_"))) (str.to_re "."))) (re.+ (re.union (str.to_re "_") (str.to_re "-") (re.range "0" "9") (re.range "A" "Z") (re.range "a" "z") (str.to_re "_"))) (re.opt (re.++ (str.to_re ":") (re.+ (re.range "0" "9")))) (str.to_re "/") (re.opt (re.++ (re.opt (str.to_re ".")) (re.union (re.range "0" "9") (re.range "A" "Z") (re.range "a" "z") (str.to_re "_")) (re.* (re.union (str.to_re ".") (str.to_re "_") (str.to_re "-") (re.range "0" "9") (re.range "A" "Z") (re.range "a" "z") (str.to_re "_"))) (re.union (str.to_re "_") (str.to_re "-") (re.range "0" "9") (re.range "A" "Z") (re.range "a" "z") (str.to_re "_")))) (re.opt (re.++ (str.to_re "#") (re.+ (re.union (re.range "0" "9") (re.range "A" "Z") (re.range "a" "z") (str.to_re "_"))))) (re.opt (re.++ (re.* (re.union (str.to_re "-") (str.to_re ".") (str.to_re ",") (str.to_re "@") (str.to_re "?") (str.to_re "^") (str.to_re "=") (str.to_re "%") (str.to_re "&") (str.to_re ":") (str.to_re "~") (str.to_re "+") (str.to_re "#") (re.range "0" "9") (re.range "A" "Z") (re.range "a" "z") (str.to_re "_"))) (re.union (str.to_re "-") (str.to_re "@") (str.to_re "?") (str.to_re "^") (str.to_re "=") (str.to_re "%") (str.to_re "&") (str.to_re "/") (str.to_re "~") (str.to_re "+") (str.to_re "#") (re.range "0" "9") (re.range "A" "Z") (re.range "a" "z") (str.to_re "_")))) (str.to_re "\u{0a}") (re.+ (re.union (str.to_re "/") (str.to_re "[") (str.to_re "_") (str.to_re ".") (str.to_re "-") (re.range "0" "9") (re.range "A" "Z") (re.range "a" "z") (str.to_re "_"))) (re.* (str.to_re "]")))))
; ^[0]|[0-3]\.(\d?\d?)|[4].[0]$
(assert (str.in_re X (re.union (str.to_re "0") (re.++ (re.range "0" "3") (str.to_re ".") (re.opt (re.range "0" "9")) (re.opt (re.range "0" "9"))) (re.++ (str.to_re "4") re.allchar (str.to_re "0\u{0a}")))))
; ^([A-Z]{2}[\s]|[A-Z]{2})[\w]{2}$
(assert (str.in_re X (re.++ (re.union (re.++ ((_ re.loop 2 2) (re.range "A" "Z")) (re.union (str.to_re " ") (str.to_re "\u{09}") (str.to_re "\u{0a}") (str.to_re "\u{0c}") (str.to_re "\u{0d}"))) ((_ re.loop 2 2) (re.range "A" "Z"))) ((_ re.loop 2 2) (re.union (re.range "0" "9") (re.range "A" "Z") (re.range "a" "z") (str.to_re "_"))) (str.to_re "\u{0a}"))))
(check-sat)
